p cnf 144 1
144 0
w 1 0.778897
w 2 1 1
w 2 -1 0
w 3 2 0.908449
w 3 -2 0.353983
w 4 3 0.482279
w 4 -3 0.901333
w 5 4 0
w 5 -4 1
w 6 5 0
w 6 -5 1
w 7 6 1
w 7 -6 0
w 8 7 1
w 8 -7 0
w 9 8 1
w 9 -8 0
w 10 9 1
w 10 -9 0
w 11 10 0.588304
w 11 -10 0.480106
w 12 11 1
w 12 -11 0
w 13 1 0
w 13 -1 1
w 14 13 2 0
w 14 13 -2 1
w 14 -13 2 0
w 14 -13 -2 0
w 15 14 3 1
w 15 14 -3 0
w 15 -14 3 1
w 15 -14 -3 0
w 16 15 4 0.400341
w 16 15 -4 0.0379312
w 16 -15 4 0.300822
w 16 -15 -4 0.672442
w 17 16 5 0
w 17 16 -5 0
w 17 -16 5 1
w 17 -16 -5 0
w 18 17 6 1
w 18 17 -6 0
w 18 -17 6 1
w 18 -17 -6 0
w 19 18 7 1
w 19 18 -7 0
w 19 -18 7 0
w 19 -18 -7 0
w 20 19 8 0.466393
w 20 19 -8 0.658039
w 20 -19 8 0.722558
w 20 -19 -8 0.950315
w 21 20 9 0.381504
w 21 20 -9 0.342686
w 21 -20 9 0.30207
w 21 -20 -9 0.809112
w 22 21 10 0
w 22 21 -10 1
w 22 -21 10 0
w 22 -21 -10 1
w 23 22 11 0
w 23 22 -11 0
w 23 -22 11 1
w 23 -22 -11 0
w 24 23 12 0
w 24 23 -12 0
w 24 -23 12 1
w 24 -23 -12 1
w 25 13 1
w 25 -13 0
w 26 25 14 0.422704
w 26 25 -14 0.491892
w 26 -25 14 0.333808
w 26 -25 -14 0.256689
w 27 26 15 0.991846
w 27 26 -15 0.979247
w 27 -26 15 0.908601
w 27 -26 -15 0.794909
w 28 27 16 1
w 28 27 -16 0
w 28 -27 16 0
w 28 -27 -16 0
w 29 28 17 0
w 29 28 -17 0
w 29 -28 17 1
w 29 -28 -17 0
w 30 29 18 1
w 30 29 -18 1
w 30 -29 18 0
w 30 -29 -18 1
w 31 30 19 0.557577
w 31 30 -19 0.582039
w 31 -30 19 0.500389
w 31 -30 -19 0.964985
w 32 31 20 0
w 32 31 -20 1
w 32 -31 20 0
w 32 -31 -20 1
w 33 32 21 0
w 33 32 -21 1
w 33 -32 21 0
w 33 -32 -21 0
w 34 33 22 1
w 34 33 -22 1
w 34 -33 22 1
w 34 -33 -22 0
w 35 34 23 1
w 35 34 -23 0
w 35 -34 23 1
w 35 -34 -23 1
w 36 35 24 0
w 36 35 -24 1
w 36 -35 24 1
w 36 -35 -24 0
w 37 25 1
w 37 -25 0
w 38 37 26 0
w 38 37 -26 1
w 38 -37 26 1
w 38 -37 -26 0
w 39 38 27 0.764525
w 39 38 -27 0.233671
w 39 -38 27 0.677615
w 39 -38 -27 0.923556
w 40 39 28 0
w 40 39 -28 0
w 40 -39 28 1
w 40 -39 -28 1
w 41 40 29 0
w 41 40 -29 0
w 41 -40 29 1
w 41 -40 -29 1
w 42 41 30 1
w 42 41 -30 0
w 42 -41 30 1
w 42 -41 -30 1
w 43 42 31 1
w 43 42 -31 0
w 43 -42 31 1
w 43 -42 -31 1
w 44 43 32 0
w 44 43 -32 0
w 44 -43 32 1
w 44 -43 -32 1
w 45 44 33 0.983158
w 45 44 -33 0.891645
w 45 -44 33 0.124399
w 45 -44 -33 0.660773
w 46 45 34 0.681833
w 46 45 -34 0.957989
w 46 -45 34 0.258538
w 46 -45 -34 0.814318
w 47 46 35 0.39152
w 47 46 -35 0.990478
w 47 -46 35 0.501553
w 47 -46 -35 0.231052
w 48 47 36 1
w 48 47 -36 1
w 48 -47 36 0
w 48 -47 -36 1
w 49 37 1
w 49 -37 0
w 50 49 38 0
w 50 49 -38 0
w 50 -49 38 1
w 50 -49 -38 1
w 51 50 39 1
w 51 50 -39 0
w 51 -50 39 1
w 51 -50 -39 1
w 52 51 40 0
w 52 51 -40 1
w 52 -51 40 1
w 52 -51 -40 0
w 53 52 41 0.901389
w 53 52 -41 0.792379
w 53 -52 41 0.804441
w 53 -52 -41 0.873174
w 54 53 42 1
w 54 53 -42 1
w 54 -53 42 0
w 54 -53 -42 1
w 55 54 43 1
w 55 54 -43 1
w 55 -54 43 0
w 55 -54 -43 1
w 56 55 44 0.803025
w 56 55 -44 0.763833
w 56 -55 44 0.983577
w 56 -55 -44 0.0239681
w 57 56 45 0.683452
w 57 56 -45 0.317131
w 57 -56 45 0.232537
w 57 -56 -45 0.510446
w 58 57 46 0
w 58 57 -46 1
w 58 -57 46 1
w 58 -57 -46 1
w 59 58 47 0.799435
w 59 58 -47 0.359954
w 59 -58 47 0.555305
w 59 -58 -47 0.603876
w 60 59 48 1
w 60 59 -48 0
w 60 -59 48 0
w 60 -59 -48 1
w 61 49 1
w 61 -49 0
w 62 61 50 0
w 62 61 -50 1
w 62 -61 50 0
w 62 -61 -50 0
w 63 62 51 0.857538
w 63 62 -51 0.749775
w 63 -62 51 0.823782
w 63 -62 -51 0.790606
w 64 63 52 1
w 64 63 -52 0
w 64 -63 52 0
w 64 -63 -52 0
w 65 64 53 1
w 65 64 -53 1
w 65 -64 53 0
w 65 -64 -53 1
w 66 65 54 1
w 66 65 -54 1
w 66 -65 54 0
w 66 -65 -54 1
w 67 66 55 1
w 67 66 -55 1
w 67 -66 55 1
w 67 -66 -55 0
w 68 67 56 0.773299
w 68 67 -56 0.58428
w 68 -67 56 0.898717
w 68 -67 -56 0.867005
w 69 68 57 0
w 69 68 -57 1
w 69 -68 57 0
w 69 -68 -57 1
w 70 69 58 0
w 70 69 -58 0
w 70 -69 58 1
w 70 -69 -58 0
w 71 70 59 0
w 71 70 -59 0
w 71 -70 59 0
w 71 -70 -59 1
w 72 71 60 1
w 72 71 -60 0
w 72 -71 60 0
w 72 -71 -60 0
w 73 61 1
w 73 -61 0
w 74 73 62 1
w 74 73 -62 1
w 74 -73 62 0
w 74 -73 -62 0
w 75 74 63 0
w 75 74 -63 1
w 75 -74 63 0
w 75 -74 -63 0
w 76 75 64 0
w 76 75 -64 1
w 76 -75 64 0
w 76 -75 -64 0
w 77 76 65 0.109419
w 77 76 -65 0.804821
w 77 -76 65 0.207941
w 77 -76 -65 0.186018
w 78 77 66 0
w 78 77 -66 0
w 78 -77 66 0
w 78 -77 -66 1
w 79 78 67 0
w 79 78 -67 1
w 79 -78 67 0
w 79 -78 -67 1
w 80 79 68 0.114832
w 80 79 -68 0.707292
w 80 -79 68 0.0480936
w 80 -79 -68 0.579262
w 81 80 69 0
w 81 80 -69 0
w 81 -80 69 1
w 81 -80 -69 0
w 82 81 70 0.538866
w 82 81 -70 0.0235917
w 82 -81 70 0.537803
w 82 -81 -70 0.866533
w 83 82 71 0.647222
w 83 82 -71 0.671354
w 83 -82 71 0.134311
w 83 -82 -71 0.83324
w 84 83 72 0
w 84 83 -72 1
w 84 -83 72 1
w 84 -83 -72 1
w 85 73 1
w 85 -73 0
w 86 85 74 1
w 86 85 -74 0
w 86 -85 74 1
w 86 -85 -74 1
w 87 86 75 1
w 87 86 -75 0
w 87 -86 75 1
w 87 -86 -75 1
w 88 87 76 0
w 88 87 -76 1
w 88 -87 76 1
w 88 -87 -76 1
w 89 88 77 0
w 89 88 -77 1
w 89 -88 77 1
w 89 -88 -77 1
w 90 89 78 0
w 90 89 -78 0
w 90 -89 78 1
w 90 -89 -78 1
w 91 90 79 0
w 91 90 -79 0
w 91 -90 79 1
w 91 -90 -79 0
w 92 91 80 0
w 92 91 -80 1
w 92 -91 80 1
w 92 -91 -80 1
w 93 92 81 1
w 93 92 -81 0
w 93 -92 81 1
w 93 -92 -81 1
w 94 93 82 0
w 94 93 -82 1
w 94 -93 82 1
w 94 -93 -82 1
w 95 94 83 0
w 95 94 -83 1
w 95 -94 83 0
w 95 -94 -83 0
w 96 95 84 0.932456
w 96 95 -84 0.425715
w 96 -95 84 0.103657
w 96 -95 -84 0.489354
w 97 85 0.493158
w 97 -85 0.21267
w 98 97 86 0
w 98 97 -86 1
w 98 -97 86 0
w 98 -97 -86 1
w 99 98 87 0.303949
w 99 98 -87 0.414967
w 99 -98 87 0.468587
w 99 -98 -87 0.189781
w 100 99 88 0.405288
w 100 99 -88 0.684991
w 100 -99 88 0.0584667
w 100 -99 -88 0.653822
w 101 100 89 1
w 101 100 -89 1
w 101 -100 89 0
w 101 -100 -89 0
w 102 101 90 0
w 102 101 -90 0
w 102 -101 90 1
w 102 -101 -90 1
w 103 102 91 0
w 103 102 -91 0
w 103 -102 91 1
w 103 -102 -91 1
w 104 103 92 0
w 104 103 -92 1
w 104 -103 92 0
w 104 -103 -92 0
w 105 104 93 0
w 105 104 -93 1
w 105 -104 93 1
w 105 -104 -93 1
w 106 105 94 1
w 106 105 -94 1
w 106 -105 94 1
w 106 -105 -94 0
w 107 106 95 0.273479
w 107 106 -95 0.0627569
w 107 -106 95 0.052667
w 107 -106 -95 0.797693
w 108 107 96 0.294401
w 108 107 -96 0.12879
w 108 -107 96 0.551405
w 108 -107 -96 0.96185
w 109 97 1
w 109 -97 0
w 110 109 98 1
w 110 109 -98 0
w 110 -109 98 1
w 110 -109 -98 1
w 111 110 99 0.727449
w 111 110 -99 0.00736807
w 111 -110 99 0.360706
w 111 -110 -99 0.104725
w 112 111 100 0
w 112 111 -100 0
w 112 -111 100 0
w 112 -111 -100 1
w 113 112 101 1
w 113 112 -101 1
w 113 -112 101 1
w 113 -112 -101 0
w 114 113 102 0.90255
w 114 113 -102 0.996797
w 114 -113 102 0.613748
w 114 -113 -102 0.196951
w 115 114 103 0
w 115 114 -103 1
w 115 -114 103 1
w 115 -114 -103 0
w 116 115 104 0
w 116 115 -104 0
w 116 -115 104 0
w 116 -115 -104 1
w 117 116 105 0.0979151
w 117 116 -105 0.272498
w 117 -116 105 0.236841
w 117 -116 -105 0.20264
w 118 117 106 0
w 118 117 -106 0
w 118 -117 106 1
w 118 -117 -106 0
w 119 118 107 0.286654
w 119 118 -107 0.389688
w 119 -118 107 0.508393
w 119 -118 -107 0.136537
w 120 119 108 1
w 120 119 -108 1
w 120 -119 108 1
w 120 -119 -108 0
w 121 109 1
w 121 -109 0
w 122 121 110 1
w 122 121 -110 0
w 122 -121 110 0
w 122 -121 -110 1
w 123 122 111 1
w 123 122 -111 1
w 123 -122 111 0
w 123 -122 -111 0
w 124 123 112 0
w 124 123 -112 0
w 124 -123 112 1
w 124 -123 -112 1
w 125 124 113 0.656626
w 125 124 -113 0.00573811
w 125 -124 113 0.265097
w 125 -124 -113 0.45488
w 126 125 114 1
w 126 125 -114 0
w 126 -125 114 1
w 126 -125 -114 1
w 127 126 115 1
w 127 126 -115 0
w 127 -126 115 1
w 127 -126 -115 1
w 128 127 116 1
w 128 127 -116 0
w 128 -127 116 0
w 128 -127 -116 0
w 129 128 117 1
w 129 128 -117 0
w 129 -128 117 1
w 129 -128 -117 1
w 130 129 118 1
w 130 129 -118 1
w 130 -129 118 1
w 130 -129 -118 0
w 131 130 119 1
w 131 130 -119 0
w 131 -130 119 0
w 131 -130 -119 0
w 132 131 120 0
w 132 131 -120 0
w 132 -131 120 1
w 132 -131 -120 1
w 133 121 1
w 133 -121 0
w 134 133 122 0
w 134 133 -122 1
w 134 -133 122 1
w 134 -133 -122 0
w 135 134 123 1
w 135 134 -123 1
w 135 -134 123 0
w 135 -134 -123 0
w 136 135 124 1
w 136 135 -124 1
w 136 -135 124 0
w 136 -135 -124 1
w 137 136 125 1
w 137 136 -125 1
w 137 -136 125 0
w 137 -136 -125 1
w 138 137 126 0
w 138 137 -126 1
w 138 -137 126 0
w 138 -137 -126 0
w 139 138 127 0
w 139 138 -127 1
w 139 -138 127 0
w 139 -138 -127 1
w 140 139 128 0
w 140 139 -128 1
w 140 -139 128 1
w 140 -139 -128 0
w 141 140 129 0
w 141 140 -129 1
w 141 -140 129 1
w 141 -140 -129 0
w 142 141 130 1
w 142 141 -130 0
w 142 -141 130 1
w 142 -141 -130 0
w 143 142 131 0
w 143 142 -131 1
w 143 -142 131 0
w 143 -142 -131 0
w 144 143 132 0
w 144 143 -132 0
w 144 -143 132 0
w 144 -143 -132 1